32      4       
10      10      10      10      
0       0       0       0       0       2       2       4       
8       0       1       1       1       1       3       
7       1       5       3       0       4       5       7       9       15      
4       3       4       0       6       4       8       10      14      15      
5       0       3       2       3       3       6       10      14      
6       0       4       2       5       2       8       18      
8       3       0       5       5       4       12      14      18      19      
1       0       5       6       5       3       11      17      19      
4       2       3       0       4       4       13      14      17      18      
8       8       6       3       0       3       13      17      18      
10      4       2       0       1       1       12      
1       4       4       5       0       1       13      
6       1       0       4       5       2       16      20      
3       0       8       10      5       2       16      20      
4       4       5       0       7       2       16      18      
4       5       4       0       6       4       21      24      30      31      
8       0       3       6       5       2       20      24      
8       0       2       5       4       3       21      24      31      
2       5       5       0       6       3       21      24      30      
6       0       4       5       1       3       22      30      31      
4       0       5       1       3       1       22      
2       0       1       3       1       2       23      29      
6       2       3       0       6       2       25      28      
10      5       4       6       0       3       27      28      29      
8       4       0       3       3       1       26      
1       0       5       3       1       1       27      
9       4       4       0       6       1       32      
6       2       0       5       4       1       32      
9       7       9       0       4       1       32      
9       5       2       2       0       1       32      
2       7       3       0       3       1       32      
0       0       0       0       0       0       
